[2026-03-24T14:27:36.141Z] Pipeline "set_vm-3-t1_vm-3-t1_s011_g002" → 2026_03_24_14_27_36_set_vm-3-t1_vm-3-t1_s011_g002_max.sol
Set parameter Username
Set parameter LicenseID to value 2796068
Set parameter LogFile to value "gurobi.log"
Using license file /opt/gurobi/gurobi.lic
Academic license - for non-commercial use only - expires 2027-03-23

Gurobi Optimizer version 13.0.1 build v13.0.1rc0 (linux64 - "Ubuntu 24.04.4 LTS")
Copyright (c) 2026, Gurobi Optimization, LLC

Warning: Duplicate section found (read 'binary') - Is a variable name equal to an LP file format keyword?
Warning: Duplicate section found (read 'binary') - Is a variable name equal to an LP file format keyword?
Warning: Duplicate section found (read 'binary') - Is a variable name equal to an LP file format keyword?
Warning: Duplicate section found (read 'binary') - Is a variable name equal to an LP file format keyword?
Warning: Duplicate section found (read 'binary') - Is a variable name equal to an LP file format keyword?
Warning: Duplicate section found (read 'binary') - Is a variable name equal to an LP file format keyword?
Warning: Duplicate section found (read 'binary') - Is a variable name equal to an LP file format keyword?
Warning: Duplicate section found (read 'binary') - Is a variable name equal to an LP file format keyword?
Warning: Duplicate section found (read 'binary') - Is a variable name equal to an LP file format keyword?
Warning: Duplicate section found (read 'binary') - Is a variable name equal to an LP file format keyword?
Warning: Further warnings of this type will be omitted.
Read LP format model from file /root/bgw/data/uploads/2026_03_24_14_27_36_set_vm-3-t1_vm-3-t1_s011_g002_max.lp
Reading time = 0.00 seconds
: 3103 rows, 318 columns, 9323 nonzeros

Using Gurobi shared library /opt/gurobi1301/linux64/lib/libgurobi.so.13.0.1

CPU model: AMD EPYC-Genoa Processor, instruction set [SSE2|AVX|AVX2|AVX512]
Thread count: 16 physical cores, 16 logical processors, using up to 16 threads

Optimize a model with 3103 rows, 318 columns and 9323 nonzeros (Max)
Model fingerprint: 0x97810caa
Model has 18 linear objective coefficients
Variable types: 39 continuous, 279 integer (279 binary)
Coefficient statistics:
  Matrix range     [1e+00, 2e+01]
  Objective range  [1e+00, 1e+00]
  Bounds range     [1e+00, 1e+00]
  RHS range        [1e+00, 2e+01]

Found heuristic solution: objective 18.0000000
Presolve removed 408 rows and 87 columns
Presolve time: 0.01s
Presolved: 2695 rows, 231 columns, 8211 nonzeros
Variable types: 0 continuous, 231 integer (224 binary)
Found heuristic solution: objective 25.0000000

Root relaxation: objective 9.400000e+01, 220 iterations, 0.01 seconds (0.01 work units)

    Nodes    |    Current Node    |     Objective Bounds      |     Work
 Expl Unexpl |  Obj  Depth IntInf | Incumbent    BestBd   Gap | It/Node Time

     0     0   94.00000    0   17   25.00000   94.00000   276%     -    0s
H    0     0                      39.0000000   94.00000   141%     -    0s
H    0     0                      49.0000000   94.00000  91.8%     -    0s
     0     0   94.00000    0   44   49.00000   94.00000  91.8%     -    0s
     0     0   94.00000    0   42   49.00000   94.00000  91.8%     -    0s
     0     0   94.00000    0   26   49.00000   94.00000  91.8%     -    0s
     0     0   94.00000    0   31   49.00000   94.00000  91.8%     -    0s
     0     0   94.00000    0   25   49.00000   94.00000  91.8%     -    0s
     0     0   94.00000    0   28   49.00000   94.00000  91.8%     -    0s
     0     0   94.00000    0   16   49.00000   94.00000  91.8%     -    0s
     0     0   93.00000    0   24   49.00000   93.00000  89.8%     -    0s
     0     0   93.00000    0   24   49.00000   93.00000  89.8%     -    0s
     0     0   93.00000    0   24   49.00000   93.00000  89.8%     -    0s
     0     0   93.00000    0   24   49.00000   93.00000  89.8%     -    0s
     0     0   93.00000    0   24   49.00000   93.00000  89.8%     -    0s
     0     0   93.00000    0   24   49.00000   93.00000  89.8%     -    0s
     0     0   93.00000    0   24   49.00000   93.00000  89.8%     -    0s
     0     2   93.00000    0   24   49.00000   93.00000  89.8%     -    0s

Cutting planes:
  Cover: 10
  MIR: 1
  Inf proof: 24

Explored 2342 nodes (150277 simplex iterations) in 1.11 seconds (1.77 work units)
Thread count was 16 (of 16 available processors)

Solution count 4: 49 39 25 18 

Optimal solution found (tolerance 1.00e-04)
Best objective 4.900000000000e+01, best bound 4.900000000000e+01, gap 0.0000%

Wrote result file '/root/bgw/data/results/2026_03_24_14_27_36_set_vm-3-t1_vm-3-t1_s011_g002_max.sol'

